76 137 73 30 12 94 83 55 126 46 13 86 189 163 80 129 26 132 181 154 147 16 23 43 159 2 171 196 122 61 169 34 116 191 167 4 114 150 15 118 14 148 97 112 95 183 182 63 60 158 82 32 49 66 8 105 18 96 175 24 7 39 106 143 108 107 17 185 142 145 101 85 9 111 59 117 29 28 179 36 138 25 134 161 53 79 121 99 146 81 157 44 65 194 54 78 128 152 135 70 195 1 184 198 69 5 58 130 100 20 119 168 27 144 51 62 133 131 22 71 103 165 84 37 52 92 174 186 136 199 93 172 140 160 151 127 72 90 89 64 170 31 57 19 139 3 75 11 176 77 102 41 104 68 115 190 123 164 48 98 124 56 173 67 177 33 162 188 193 6 87 125 10 178 113 21 47 192 50 197 40 141 180 110 156 155 0 153 38 74 120 88 166 45 42 187 91 149 35 109 

